(set-logic QF_S)
(declare-fun var0 () String)
(declare-fun var1 () String)
(declare-fun var2 () String)
(declare-fun var3 () String)
(declare-fun var4 () String)
(declare-fun var5 () String)
(declare-fun var6 () String)
(declare-fun var7 () String)
(declare-fun var8 () String)
(declare-fun var9 () String)
(declare-fun var10 () String)
(declare-fun var11 () String)
(declare-fun var12 () String)
(declare-fun var13 () String)
(declare-fun var14 () String)
(declare-fun var15 () String)
(declare-fun var16 () String)
(declare-fun var17 () String)
(declare-fun var18 () String)
(declare-fun var19 () String)
(declare-fun var20 () String)
(declare-fun var21 () String)
(declare-fun var22 () String)
(declare-fun var23 () String)
(declare-fun var24 () String)
(declare-fun var25 () String)
(declare-fun var26 () String)
(declare-fun var27 () String)
(declare-fun var28 () String)
(declare-fun var29 () String)
(declare-fun var30 () String)
(declare-fun var31 () String)
(declare-fun var32 () String)
(declare-fun var33 () String)
(declare-fun var34 () String)
(declare-fun var35 () String)
(declare-fun var36 () String)
(declare-fun var37 () String)
(declare-fun var38 () String)
(declare-fun var39 () String)
(declare-fun var40 () String)
(declare-fun var41 () String)
(declare-fun var42 () String)
(declare-fun var43 () String)
(declare-fun var44 () String)
(declare-fun var45 () String)
(declare-fun var46 () String)
(declare-fun var47 () String)
(declare-fun var48 () String)
(declare-fun var49 () String)
(declare-fun var50 () String)
(declare-fun var51 () String)
(declare-fun var52 () String)
(declare-fun var53 () String)
(declare-fun var54 () String)
(declare-fun var55 () String)
(declare-fun var56 () String)
(declare-fun var57 () String)
(declare-fun var58 () String)
(declare-fun var59 () String)
(declare-fun var60 () String)
(assert (= var0 (Concat var1 var2)))
(assert (= var2 (Concat var3 var4)))
(assert (= var4 (Concat var5 var6)))
(assert (= var6 (Concat var7 var8)))
(assert (= var8 (Concat var9 var10)))
(assert (= var10 (Concat var11 var12)))
(assert (= var12 (Concat var13 var14)))
(assert (= var14 (Concat var15 var16)))
(assert (= var16 (Concat var17 var18)))
(assert (= var18 (Concat var19 var20)))
(assert (= var20 (Concat var21 var22)))
(assert (= var22 (Concat var23 var24)))
(assert (= var24 (Concat var25 var26)))
(assert (= var26 (Concat var27 var28)))
(assert (= var28 (Concat var29 var30)))
(assert (= var30 (Concat var31 var32)))
(assert (= var32 (Concat var33 var34)))
(assert (= var34 (Concat var35 var36)))
(assert (= var36 (Concat var37 var38)))
(assert (= var38 (Concat var39 var40)))
(assert (= var40 (Concat var41 var42)))
(assert (= var42 (Concat var43 var44)))
(assert (= var44 (Concat var45 var46)))
(assert (= var46 (Concat var47 var48)))
(assert (= var48 (Concat var49 var50)))
(assert (= var50 (Concat var51 var52)))
(assert (= var52 (Concat var53 var54)))
(assert (= var54 (Concat var55 var56)))
(assert (= var56 (Concat var57 var58)))
(assert (= var58 (Concat var59 var60)))
(assert (= var0 "solution"))
(assert (= "/" (CharAt var37 922)))
(assert (= "}" (CharAt var32 403)))
(assert (= "G" (CharAt var46 466)))
(assert (= "O" (CharAt var24 746)))
(assert (= "/" (CharAt var12 521)))
(assert (= "1" (CharAt var12 643)))
(assert (= "F" (CharAt var25 186)))
(assert (= "?" (CharAt var37 722)))
(assert (= "8" (CharAt var0 579)))
(assert (= "L" (CharAt var0 494)))
(assert (= "T" (CharAt var40 103)))
(assert (= "b" (CharAt var20 486)))
(assert (= "K" (CharAt var57 595)))
(assert (= "g" (CharAt var2 778)))
(assert (= "y" (CharAt var37 841)))
(assert (= "U" (CharAt var5 804)))
(assert (= "N" (CharAt var21 364)))
(assert (= "T" (CharAt var51 444)))
(assert (= "|" (CharAt var59 488)))
(assert (= ">" (CharAt var9 305)))
(assert (= "o" (CharAt var60 859)))
(assert (= "'" (CharAt var49 460)))
(assert (= "D" (CharAt var57 118)))
(assert (= "?" (CharAt var3 64)))
(assert (= "'" (CharAt var2 369)))
(assert (= "a" (CharAt var54 415)))
(assert (= "p" (CharAt var22 2)))
(assert (= "o" (CharAt var34 501)))
(assert (= "l" (CharAt var4 995)))
(assert (= "." (CharAt var2 674)))
(assert (= "x" (CharAt var41 536)))
(assert (= "D" (CharAt var43 656)))
(assert (= "u" (CharAt var27 996)))
(assert (= "\"" (CharAt var14 647)))
(assert (= "*" (CharAt var30 483)))
(assert (= "~" (CharAt var7 843)))
(assert (= "]" (CharAt var40 628)))
(assert (= "(" (CharAt var9 309)))
(assert (= ")" (CharAt var48 386)))
(assert (= "$" (CharAt var26 17)))
(assert (= ":" (CharAt var42 591)))
(assert (= "[" (CharAt var16 911)))
(assert (= "R" (CharAt var39 585)))
(assert (= ")" (CharAt var3 980)))
(assert (= "X" (CharAt var21 475)))
(assert (= "r" (CharAt var11 785)))
(assert (= "S" (CharAt var41 423)))
(assert (= "0" (CharAt var12 915)))
(assert (= "3" (CharAt var54 491)))
(assert (= "\\" (CharAt var8 615)))
(assert (= "e" (CharAt var32 823)))
(assert (= "n" (CharAt var21 233)))
(assert (= "c" (CharAt var44 744)))
(assert (= ";" (CharAt var2 587)))
(assert (= "}" (CharAt var2 693)))
(assert (= "C" (CharAt var42 930)))
(assert (= "c" (CharAt var31 415)))
(assert (= "," (CharAt var59 57)))
(assert (= "C" (CharAt var21 664)))
(assert (= "8" (CharAt var52 112)))
(assert (= "8" (CharAt var17 227)))
(assert (= "S" (CharAt var21 54)))
(assert (= "0" (CharAt var28 422)))
(assert (= ">" (CharAt var18 411)))
(assert (= "g" (CharAt var20 109)))
(assert (= "S" (CharAt var16 311)))
(assert (= "U" (CharAt var58 671)))
(assert (= "e" (CharAt var6 218)))
(assert (= "P" (CharAt var60 995)))
(assert (= "(" (CharAt var45 0)))
(assert (= "S" (CharAt var49 281)))
(assert (= "b" (CharAt var54 904)))
(assert (= "F" (CharAt var54 75)))
(assert (= "&" (CharAt var16 366)))
(assert (= "g" (CharAt var7 106)))
(assert (= "L" (CharAt var52 935)))
(assert (= "=" (CharAt var54 401)))
(assert (= "P" (CharAt var21 690)))
(assert (= "y" (CharAt var8 864)))
(assert (= "A" (CharAt var10 928)))
(assert (= "n" (CharAt var47 340)))
(assert (= "<" (CharAt var56 738)))
(assert (= "=" (CharAt var49 284)))
(assert (= "/" (CharAt var37 715)))
(assert (= "*" (CharAt var58 177)))
(assert (= "D" (CharAt var33 47)))
(assert (= "/" (CharAt var58 747)))
(assert (= "W" (CharAt var59 168)))
(assert (= "N" (CharAt var19 793)))
(assert (= "s" (CharAt var39 631)))
(assert (= "u" (CharAt var43 553)))
(assert (= "i" (CharAt var54 457)))
(assert (= "N" (CharAt var14 543)))
(assert (= "?" (CharAt var52 929)))
(assert (= "J" (CharAt var25 707)))
(assert (= "3" (CharAt var32 259)))
(assert (= "4" (CharAt var19 186)))
(assert (= "t" (CharAt var17 35)))
(assert (= "c" (CharAt var6 566)))
(assert (= "f" (CharAt var21 659)))
(assert (= "." (CharAt var59 712)))
(assert (= "7" (CharAt var60 208)))
(assert (= "G" (CharAt var34 849)))
(assert (= "%" (CharAt var27 357)))
(assert (= "h" (CharAt var18 368)))
(assert (= "^" (CharAt var8 143)))
(assert (= "9" (CharAt var31 583)))
(assert (= "K" (CharAt var2 395)))
(assert (= "x" (CharAt var12 40)))
(assert (= "5" (CharAt var54 6)))
(assert (= "[" (CharAt var31 688)))
(assert (= "b" (CharAt var20 895)))
(assert (= "R" (CharAt var48 576)))
(assert (= "$" (CharAt var27 149)))
(assert (= "h" (CharAt var43 292)))
(assert (= "f" (CharAt var54 596)))
(assert (= "L" (CharAt var46 912)))
(assert (= "0" (CharAt var14 527)))
(assert (= "`" (CharAt var9 579)))
(assert (= "7" (CharAt var17 602)))
(assert (= "C" (CharAt var42 416)))
(check-sat)